p tw 21 42
1 14
1 3
1 6
1 8
2 4
2 7
2 8
2 9
11 17
11 19
12 18
12 20
13 19
13 21
14 15
14 20
15 18
15 19
16 19
16 20
17 20
17 21
18 21
3 5
3 9
3 10
4 11
4 6
4 10
5 11
5 12
5 7
6 12
6 13
7 13
7 14
8 16
8 21
9 15
9 17
10 16
10 18
